p cnf 20 8
e 1 2 0
a 3 4 0
e 5 6 0
a 7 0
e 8 0
a 9 0
e 10 0
a 11 12 0
e 13 14 15 0
a 16 0
e 17 0
a 18 19 20 0
15 -10 -6 14 -9 0
-4 -18 -1 -2 0
-4 1 -19 15 8 0
11 -5 -12 10 0
13 17 -16 9 0
3 -1 -9 -6 11 0
11 8 2 -10 -18 0
17 -18 15 0
